nNurses = 80;
nHours = 38;
minHours = 8;
maxHours = 16;
maxConsec = 15;
maxPresence = 21;
demand = [16, 15, 19, 20, 25, 28, 24, 19, 22, 24, 23, 22, 17, 17, 20, 19, 18, 13, 12, 9, 7, 10, 15, 15, 18, 16, 19, 16, 21, 16, 17, 22, 20, 19, 23, 26, 28, 24];
